rc2_10_7

VEHICLE
NUMBER   CAPACITY
250     1000

CUSTOMER
CUST NO. XCOORD.  YCOORD.  DEMAND  READY TIME DUE DATE  SERVICE TIME

0   250    250     0     0    7284     0
849 275 42 30 907 1114 10
836 240 34 28 6237 6360 10
652 251 63 14 3765 4254 10
209 265 0 10 3450 3838 10
797 275 45 20 718 1198 10
558 282 1 18 4122 4337 10
568 277 50 10 814 888 10
715 233 87 18 925 1215 10
118 268 52 10 1056 1509 10
810 269 46 20 911 1357 10
441 253 50 27 683 1243 10
994 209 68 27 6108 6556 10
940 224 56 13 4660 4952 10
852 267 44 20 694 1473 10
435 257 57 18 4809 5118 10
699 269 48 20 959 1406 10
528 273 55 20 649 921 10
564 292 32 14 756 1198 10
259 253 74 20 5165 5755 10
750 239 15 2 2299 2651 10
186 231 29 14 4704 5226 10
169 274 48 10 663 1147 10
413 210 29 13 4231 4295 10
981 270 49 30 1075 1381 10
385 235 33 30 5338 5478 10
